 &control
    prefix     = 'al'
    outdir     = './outdirs'
    pseudo_dir = '../../pseudo',
 /
 &system    
    ibrav      = 2,
    celldm(1)  = 7.50,
    nat        = 1,
    ntyp       = 1,
    ecutwfc    = 12.0, 
    occupations= 'smearing',
    smearing   = 'marzari-vanderbilt',
    degauss    = 0.06
 /
 &electrons
 /
 &IONS
 /
ATOMIC_SPECIES
 Al  26.98 Al.pz-vbc.UPF
ATOMIC_POSITIONS alat
 Al 0.05 -0.20 0.10 
K_POINTS automatic
  6 6 6 1 1 1
