 &control
    prefix     = 'al'
    outdir     = './outdirs'
    pseudo_dir = '../../pseudo',
 /
 &system    
    ibrav      = 2,
    celldm(1)  = 15.0,
    nat        = 8,
    ntyp       = 1,
    ecutwfc    = 12.0, 
    occupations= 'smearing',
    smearing   = 'marzari-vanderbilt',
    degauss    = 0.06
 /
 &electrons
 /
 &IONS
 /
ATOMIC_SPECIES
 Al  26.98 Al.pz-vbc.UPF
ATOMIC_POSITIONS alat
 Al 0.00 0.00 0.00 0 0 0
 Al -0.2 0.25 0.12
 Al 0.02 0.27 0.15
 Al -0.22 0.43 0.20
 Al -0.20 -0.03 0.28
 Al -0.52 0.22 0.22
 Al -0.27 0.27 0.52
 Al -0.47 0.48 0.53
K_POINTS automatic
  3 3 3 1 1 1