 &projwfc
    prefix='silicon',
    outdir='./outdirs'
    filpdos='si.pdos'
    !Emin=5.0,
    !Emax=20.0,
    DeltaE=0.01
    ngauss = -1
    degauss=0.015
 /
