 &control
    prefix        = 'silicon',
    calculation   = 'scf',
    pseudo_dir    = '../../pseudo',
    outdir        = './outdirs'
 /
 &system    
    ibrav         = 2,
    celldm(1)     = 10.2,
    nat           = 2,
    ntyp          = 1,
    ecutwfc       = 60.0,
    !nbnd          = 8,
    occupations   = 'tetrahedra'
 /
 &electrons
 /
 &ions
 /
 &cell
 /
ATOMIC_SPECIES
 Si  28.086  Si.pz-vbc.UPF
ATOMIC_POSITIONS alat
 Si 0.00 0.00 0.00 
 Si 0.25 0.25 0.25
K_POINTS automatic
  6 6 6 0 0 0
